NAME : LRC1_6_7
TYPE : PDPTW
DIMENSION : 150
EDGE_WEIGHT_TYPE : EXACT_2D
NODE_COORD_SECTION
1 1 0
2 150 0
3 0 0
4 27 839
5 619 2
6 70 126
7 3 199
8 565 10
9 61 84
10 0 0
11 103 20
12 0 343
13 -10 49
14 0 7
15 575 746
16 8 230
17 410 10
18 55 68
19 10 134
20 180 27
21 0 585
22 -20 288
23 0 12
24 203 291
25 13 257
26 194 10
27 57 155
28 10 0
29 26 25
30 0 179
31 10 123
32 372 17
33 199 286
34 18 89
35 322 10
36 84 231
37 10 194
38 240 -10
39 232 0
40 -20 169
41 0 22
42 145 162
43 23 180
44 113 10
45 240 73
46 10 0
47 265 20
48 0 467
49 20 62
50 395 27
51 146 233
52 28 160
53 151 10
54 289 130
55 10 400
56 255 -6
57 176 0
58 -24 334
59 0 32
60 559 635
61 33 115
62 136 10
63 250 228
64 10 590
65 89 -26
66 464 0
67 20 82
68 180 37
69 33 110
70 38 159
71 247 10
72 47 277
73 10 0
74 269 -42
75 465 0
76 30 203
77 272 42
78 136 225
79 43 74
80 895 10
81 140 140
82 10 0
83 241 -5
84 572 0
85 20 98
86 415 47
87 67 202
88 48 136
89 652 10
90 250 124
91 10 0
92 299 -18
93 371 0
94 10 183
95 557 52
96 118 164
97 53 212
98 215 10
99 259 59
100 10 289
101 104 -30
102 438 0
103 20 116
104 263 57
105 599 690
106 58 57
107 277 10
108 232 121
109 10 8
110 132 10
111 0 314
112 -20 335
113 0 62
114 104 222
115 63 143
116 176 10
117 248 41
118 10 172
119 263 -20
120 39 0
121 20 57
122 412 67
123 90 180
124 68 259
125 305 10
126 38 139
127 10 445
128 41 -10
129 577 0
130 10 140
131 602 72
132 187 276
133 73 102
134 865 0
135 43 286
136 10 0
137 160 20
138 0 61
139 13 78
140 168 77
141 176 261
142 78 88
143 695 10
144 122 127
145 10 0
146 63 10
147 0 115
148 16 97
149 509 82
150 604 706
PICKUP_AND_DELIVERY_SECTION
1 0 0 0 0 0 0
2 0 0 0 0 1206 0
3 0 0 0 0 0 125
4 0 0 0 0 0 0
5 0 0 0 0 107 107
6 0 0 0 0 0 0
7 0 0 0 0 -16 -16
8 0 0 0 0 0 0
9 0 0 0 0 282 282
10 0 0 0 0 5 5
11 0 0 0 0 156 156
12 0 0 0 0 143 143
13 0 0 0 0 10 10
14 0 0 0 0 141 141
15 0 0 0 0 72 72
16 0 0 0 0 21 21
17 0 0 0 0 59 0
18 0 0 0 0 155 155
19 0 0 0 0 10 0
20 0 0 0 0 440 440
21 0 0 0 0 159 159
22 0 0 0 0 10 10
23 0 0 0 0 4 4
24 0 0 0 0 0 0
25 0 0 0 0 -20 -20
26 0 0 0 0 0 0
27 0 0 0 0 93 93
28 0 0 0 0 15 15
29 0 0 0 0 621 621
30 0 0 0 0 231 231
31 0 0 0 0 10 10
32 0 0 0 0 132 132
33 0 0 0 0 0 0
34 0 0 0 0 14 14
35 0 0 0 0 315 0
36 0 0 0 0 527 527
37 0 0 0 0 20 0
38 0 0 0 0 583 583
39 0 0 0 0 110 110
40 0 0 0 0 10 10
41 0 0 0 0 74 74
42 0 0 0 0 0 0
43 0 0 0 0 19 19
44 0 0 0 0 140 0
45 0 0 0 0 118 118
46 0 0 0 0 25 25
47 0 0 0 0 274 274
48 0 0 0 0 134 134
49 0 0 0 0 10 10
50 0 0 0 0 59 59
51 0 0 0 0 0 0
52 0 0 0 0 10 10
53 0 0 0 0 135 0
54 0 0 0 0 272 272
55 0 0 0 0 30 0
56 0 0 0 0 290 290
57 0 0 0 0 234 234
58 0 0 0 0 10 10
59 0 0 0 0 208 208
60 0 0 0 0 165 165
61 0 0 0 0 10 10
62 0 0 0 0 221 0
63 0 0 0 0 752 752
64 0 0 0 0 35 0
65 0 0 0 0 885 885
66 0 0 0 0 105 105
67 0 0 0 0 10 10
68 0 0 0 0 183 183
69 0 0 0 0 0 0
70 0 0 0 0 -10 -10
71 0 0 0 0 0 0
72 0 0 0 0 163 163
73 0 0 0 0 40 40
74 0 0 0 0 497 497
75 0 0 0 0 212 212
76 0 0 0 0 10 10
77 0 0 0 0 149 149
78 0 0 0 0 0 0
79 0 0 0 0 -46 -46
80 0 0 0 0 0 0
81 0 0 0 0 14 14
82 0 0 0 0 45 45
83 0 0 0 0 730 730
84 0 0 0 0 222 222
85 0 0 0 0 10 10
86 0 0 0 0 124 124
87 0 0 0 0 0 0
88 0 0 0 0 19 19
89 0 0 0 0 216 0
90 0 0 0 0 112 112
91 0 0 0 0 50 50
92 0 0 0 0 442 442
93 0 0 0 0 258 258
94 0 0 0 0 10 10
95 0 0 0 0 47 47
96 0 0 0 0 137 137
97 0 0 0 0 -5 -5
98 0 0 0 0 0 0
99 0 0 0 0 141 141
100 0 0 0 0 55 0
101 0 0 0 0 134 134
102 0 0 0 0 77 77
103 0 0 0 0 10 10
104 0 0 0 0 45 45
105 0 0 0 0 493 493
106 0 0 0 0 -10 -10
107 0 0 0 0 0 0
108 0 0 0 0 558 558
109 0 0 0 0 60 0
110 0 0 0 0 178 178
111 0 0 0 0 18 18
112 0 0 0 0 10 10
113 0 0 0 0 113 113
114 0 0 0 0 0 0
115 0 0 0 0 20 20
116 0 0 0 0 270 0
117 0 0 0 0 436 436
118 0 0 0 0 65 0
119 0 0 0 0 312 312
120 0 0 0 0 109 109
121 0 0 0 0 10 10
122 0 0 0 0 71 71
123 0 0 0 0 0 0
124 0 0 0 0 -10 -10
125 0 0 0 0 0 0
126 0 0 0 0 311 311
127 0 0 0 0 70 0
128 0 0 0 0 401 401
129 0 0 0 0 255 255
130 0 0 0 0 0 0
131 0 0 0 0 122 122
132 0 0 0 0 0 0
133 0 0 0 0 17 17
134 0 0 0 0 604 0
135 0 0 0 0 173 173
136 0 0 0 0 75 75
137 0 0 0 0 141 141
138 0 0 0 0 172 172
139 0 0 0 0 10 10
140 0 0 0 0 22 22
141 0 0 0 0 0 0
142 0 0 0 0 -20 -20
143 0 0 0 0 0 0
144 0 0 0 0 0 36
145 0 0 0 0 80 80
146 0 0 0 0 224 224
147 0 0 0 0 53 53
148 0 0 0 0 10 10
149 0 0 0 0 281 281
150 0 0 0 0 0 0
DEPOT_SECTION
1 
-1
EOF
